(set-logic QF_FP)
(set-info :source |Random FP created by PyMPF|)
(set-info :category random)
(set-info :status unsat)
(declare-const x Float32)
(assert (= x (_ -zero 8 24)))
(declare-const y Float32)
(assert (= y ((_ to_fp 8 24) #x80255D98)))
(declare-const z Float32)
(assert (= z ((_ to_fp 8 24) #x8CF2A1E5)))
(declare-const result Float32)
(assert (= result (fp.fma RTZ x y z)))
(assert (not (= result (fp #b1 #b00011001 #b11100101010000111100101))))
(check-sat)
(exit)
